13
42 41 18 24 86 77 37 4 88 69 89 93 2
54 12 92 20 145 33 25 100 38 167 178 95 178
201

7
68 88 9 25 88 41 75
184 12 89 71 60 188 121
147

4
58 96 21 1
2 37 150 81
19

4
60 72 32 75
147 40 52 4
500

19
85 41 96 84 1 23 67 49 72 99 83 6 50 67 75 25 20 88 22
159 38 90 107 112 39 48 195 43 186 80 174 122 72 170 105 24 144 24
387

14
80 18 39 47 2 59 63 44 16 73 45 72 9 33
129 76 173 122 189 38 168 138 57 71 14 19 11 33
1940

15
28 14 63 26 77 94 33 99 53 77 38 96 100 34 32
124 60 35 162 24 151 94 177 73 45 152 119 89 142 4
228

5
34 98 10 44 67
100 27 39 88 98
30

15
98 19 73 44 51 18 11 100 53 63 77 56 18 97 65
153 92 168 86 15 86 82 160 145 40 48 38 87 166 103
421
